Maximize
F - ff - gg

Subject to
F - f1 - f2 - f3 - f4 = 0
f1 - 30X17 - 30X23 - 10X67 - 10X164 = 0
f2 - 15.0Y17 - 15.0Y23 - 5.0Y67 - 5.0Y164 = 0
f3 = 0
f4 = 0

ff - 0.020040s17 - 0.020040s23 - 0.020040s67 - 0.020040s164 
- 0.020040t17 - 0.020040t23 - 0.020040t67 - 0.020040t164 


= 0
gg - 2.477112Y17 - 2.509828Y23 - 2.325002Y67 - 2.487006Y164 

= 0

n1 - X17 - X23 - X67 - X164 = 0
n2 - Y17 - Y23 - Y67 - Y164 = 0
n3 = 0
n4 = 0

X17 + Y17 <= 1
X23 + Y23 <= 1
X67 + Y67 <= 1
X164 + Y164 <= 1



x16x17x1 + x16x67x1 + x16x164x1 
+ y16y17y1 + y16y67y1 + y16y164y1 
<= 1

x69x17x1 + x69x67x1 + x69x164x1 
+ y69y17y1 + y69y67y1 + y69y164y1 
<= 1
x185x17x1 + x185x67x1 + x185x164x1 
+ y185y17y1 + y185y67y1 + y185y164y1 
<= 1
x58x17x1 + x58x67x1 + x58x164x1 
+ y58y17y1 + y58y67y1 + y58y164y1 
<= 1
x74x17x1 + x74x67x1 + x74x164x1 
+ y74y17y1 + y74y67y1 + y74y164y1 
<= 1
x2x17x1 + x2x67x1 + x2x164x1 
+ y2y17y1 + y2y67y1 + y2y164y1 
<= 1

x183x17x1 + x183x67x1 + x183x164x1 
+ y183y17y1 + y183y67y1 + y183y164y1 
<= 1

x139x17x1 + x139x67x1 + x139x164x1 
+ y139y17y1 + y139y67y1 + y139y164y1 
<= 1




x185x17x2 + x185x67x2 
+ y185y17y2 + y185y67y2 
<= 1
x58x17x2 + x58x67x2 
+ y58y17y2 + y58y67y2 
<= 1
x74x17x2 + x74x67x2 
+ y74y17y2 + y74y67y2 
<= 1

x43x17x2 + x43x67x2 
+ y43y17y2 + y43y67y2 
<= 2
x183x17x2 + x183x67x2 
+ y183y17y2 + y183y67y2 
<= 1

x139x17x2 + x139x67x2 
+ y139y17y2 + y139y67y2 
<= 1
x124x17x2 + x124x67x2 
+ y124y17y2 + y124y67y2 
<= 1
x16x23x3 
+ y16y23y3 
<= 1
x35x23x3 
+ y35y23y3 
<= 2
x69x23x3 
+ y69y23y3 
<= 1



x2x23x3 
+ y2y23y3 
<= 1


x160x23x3 
+ y160y23y3 
<= 2

x124x23x3 
+ y124y23y3 
<= 1
x16x17x1 + x16x67x1 + x16x164x1 

<= 1

x69x17x1 + x69x67x1 + x69x164x1 

<= 1
x185x17x1 + x185x67x1 + x185x164x1 

<= 1
x58x17x1 + x58x67x1 + x58x164x1 

<= 1
x74x17x1 + x74x67x1 + x74x164x1 

<= 1
x2x17x1 + x2x67x1 + x2x164x1 

<= 1

x183x17x1 + x183x67x1 + x183x164x1 

<= 1

x139x17x1 + x139x67x1 + x139x164x1 

<= 1




x185x17x2 + x185x67x2 

<= 1
x58x17x2 + x58x67x2 

<= 1
x74x17x2 + x74x67x2 

<= 1

x43x17x2 + x43x67x2 

<= 2
x183x17x2 + x183x67x2 

<= 1

x139x17x2 + x139x67x2 

<= 1
x124x17x2 + x124x67x2 

<= 1
x16x23x3 

<= 1
x35x23x3 

<= 2
x69x23x3 

<= 1



x2x23x3 

<= 1


x160x23x3 

<= 2

x124x23x3 

<= 1
x16x17x1 + x16x67x1 + x16x164x1 

<= 1

x69x17x1 + x69x67x1 + x69x164x1 

<= 1
x185x17x1 + x185x67x1 + x185x164x1 

<= 1
x58x17x1 + x58x67x1 + x58x164x1 

<= 1
x74x17x1 + x74x67x1 + x74x164x1 

<= 1
x2x17x1 + x2x67x1 + x2x164x1 

<= 1

x183x17x1 + x183x67x1 + x183x164x1 

<= 1

x139x17x1 + x139x67x1 + x139x164x1 

<= 1




x185x17x2 + x185x67x2 

<= 1
x58x17x2 + x58x67x2 

<= 1
x74x17x2 + x74x67x2 

<= 1

x43x17x2 + x43x67x2 

<= 2
x183x17x2 + x183x67x2 

<= 1

x139x17x2 + x139x67x2 

<= 1
x124x17x2 + x124x67x2 

<= 1
x16x23x3 

<= 1
x35x23x3 

<= 2
x69x23x3 

<= 1



x2x23x3 

<= 1


x160x23x3 

<= 2

x124x23x3 

<= 1
x16x17x1 + x69x17x1 + x185x17x1 + x58x17x1 + x74x17x1 + x2x17x1 + x183x17x1 + x139x17x1 + x164x17x1 
+ y16y17y1 + y69y17y1 + y185y17y1 + y58y17y1 + y74y17y1 + y2y17y1 + y183y17y1 + y139y17y1 + y164y17y1 
= 0
x185x17x2 + x58x17x2 + x74x17x2 + x43x17x2 + x183x17x2 + x139x17x2 + x124x17x2 
+ y185y17y2 + y58y17y2 + y74y17y2 + y43y17y2 + y183y17y2 + y139y17y2 + y124y17y2 
= 0

x16x23x3 + x35x23x3 + x69x23x3 + x2x23x3 + x160x23x3 + x124x23x3 
+ y16y23y3 + y35y23y3 + y69y23y3 + y2y23y3 + y160y23y3 + y124y23y3 
= 0

x16x67x1 + x69x67x1 + x185x67x1 + x58x67x1 + x74x67x1 + x2x67x1 + x183x67x1 + x139x67x1 + x164x67x1 
+ y16y67y1 + y69y67y1 + y185y67y1 + y58y67y1 + y74y67y1 + y2y67y1 + y183y67y1 + y139y67y1 + y164y67y1 
= 0
x185x67x2 + x58x67x2 + x74x67x2 + x43x67x2 + x183x67x2 + x139x67x2 + x124x67x2 
+ y185y67y2 + y58y67y2 + y74y67y2 + y43y67y2 + y183y67y2 + y139y67y2 + y124y67y2 
= 0

x16x164x1 + x69x164x1 + x185x164x1 + x58x164x1 + x74x164x1 + x2x164x1 + x183x164x1 + x139x164x1 
+ y16y164y1 + y69y164y1 + y185y164y1 + y58y164y1 + y74y164y1 + y2y164y1 + y183y164y1 + y139y164y1 
- x164x17x1 - x164x67x1 
- y164y17y1 - y164y67y1 - y164y0y1
= 0


x16x17x1 + x69x17x1 + x185x17x1 + x58x17x1 + x74x17x1 + x2x17x1 + x183x17x1 + x139x17x1 + x164x17x1 
= 0
x185x17x2 + x58x17x2 + x74x17x2 + x43x17x2 + x183x17x2 + x139x17x2 + x124x17x2 
= 0

x16x23x3 + x35x23x3 + x69x23x3 + x2x23x3 + x160x23x3 + x124x23x3 
= 0

x16x67x1 + x69x67x1 + x185x67x1 + x58x67x1 + x74x67x1 + x2x67x1 + x183x67x1 + x139x67x1 + x164x67x1 
= 0
x185x67x2 + x58x67x2 + x74x67x2 + x43x67x2 + x183x67x2 + x139x67x2 + x124x67x2 
= 0

x16x164x1 + x69x164x1 + x185x164x1 + x58x164x1 + x74x164x1 + x2x164x1 + x183x164x1 + x139x164x1 
- x164x17x1 - x164x67x1 
= 0


x16x17x1 + x69x17x1 + x185x17x1 + x58x17x1 + x74x17x1 + x2x17x1 + x183x17x1 + x139x17x1 + x164x17x1 
= 0
x185x17x2 + x58x17x2 + x74x17x2 + x43x17x2 + x183x17x2 + x139x17x2 + x124x17x2 
= 0

x16x23x3 + x35x23x3 + x69x23x3 + x2x23x3 + x160x23x3 + x124x23x3 
= 0

x16x67x1 + x69x67x1 + x185x67x1 + x58x67x1 + x74x67x1 + x2x67x1 + x183x67x1 + x139x67x1 + x164x67x1 
= 0
x185x67x2 + x58x67x2 + x74x67x2 + x43x67x2 + x183x67x2 + x139x67x2 + x124x67x2 
= 0

x16x164x1 + x69x164x1 + x185x164x1 + x58x164x1 + x74x164x1 + x2x164x1 + x183x164x1 + x139x164x1 
- x164x17x1 - x164x67x1 
= 0


1X17 - x16x17x1 - x69x17x1 - x185x17x1 - x58x17x1 - x74x17x1 - x2x17x1 - x183x17x1 - x139x17x1 - x164x17x1 = 0
1X17 - x185x17x2 - x58x17x2 - x74x17x2 - x43x17x2 - x183x17x2 - x139x17x2 - x124x17x2 = 0
2X23 - x16x23x3 - x35x23x3 - x69x23x3 - x2x23x3 - x160x23x3 - x124x23x3 = 0
1X67 - x16x67x1 - x69x67x1 - x185x67x1 - x58x67x1 - x74x67x1 - x2x67x1 - x183x67x1 - x139x67x1 - x164x67x1 = 0
1X67 - x185x67x2 - x58x67x2 - x74x67x2 - x43x67x2 - x183x67x2 - x139x67x2 - x124x67x2 = 0
2X164 - x16x164x1 - x69x164x1 - x185x164x1 - x58x164x1 - x74x164x1 - x2x164x1 - x183x164x1 - x139x164x1 = 0

1Y17 - y16y17y1 - y69y17y1 - y185y17y1 - y58y17y1 - y74y17y1 - y2y17y1 - y183y17y1 - y139y17y1 - y164y17y1 = 0
1Y17 - y185y17y2 - y58y17y2 - y74y17y2 - y43y17y2 - y183y17y2 - y139y17y2 - y124y17y2 = 0
2Y23 - y16y23y3 - y35y23y3 - y69y23y3 - y2y23y3 - y160y23y3 - y124y23y3 = 0
1Y67 - y16y67y1 - y69y67y1 - y185y67y1 - y58y67y1 - y74y67y1 - y2y67y1 - y183y67y1 - y139y67y1 - y164y67y1 = 0
1Y67 - y185y67y2 - y58y67y2 - y74y67y2 - y43y67y2 - y183y67y2 - y139y67y2 - y124y67y2 = 0
2Y164 - y16y164y1 - y69y164y1 - y185y164y1 - y58y164y1 - y74y164y1 - y2y164y1 - y183y164y1 - y139y164y1 = 0




s16 - s17 + 6.485877a16a17a1 <= 5.33
s16 - s23 + 6.492158a16a23a3 <= 5.33
s16 - s67 + 6.511779a16a67a1 <= 5.33
s16 - s164 + 6.509319a16a164a1 <= 5.33
s35 - s23 + 5.865284a35a23a3 <= 4.73
s69 - s17 + 6.448755a69a17a1 <= 5.32
s69 - s23 + 6.454990a69a23a3 <= 5.32
s69 - s67 + 6.475492a69a67a1 <= 5.32
s69 - s164 + 6.472316a69a164a1 <= 5.32
s185 - s17 + 6.718878a185a17a1 <= 5.47
s185 - s17 + 6.718878a185a17a2 <= 5.47
s185 - s67 + 6.735107a185a67a1 <= 5.47
s185 - s67 + 6.735107a185a67a2 <= 5.47
s185 - s164 + 6.739521a185a164a1 <= 5.47
s58 - s17 + 7.101995a58a17a1 <= 5.59
s58 - s17 + 7.101995a58a17a2 <= 5.59
s58 - s67 + 7.111678a58a67a1 <= 5.59
s58 - s67 + 7.111678a58a67a2 <= 5.59
s58 - s164 + 7.093968a58a164a1 <= 5.59
s74 - s17 + 7.017489a74a17a1 <= 5.52
s74 - s17 + 7.017489a74a17a2 <= 5.52
s74 - s67 + 7.027364a74a67a1 <= 5.52
s74 - s67 + 7.027364a74a67a2 <= 5.52
s74 - s164 + 7.009583a74a164a1 <= 5.52
s2 - s17 + 7.225242a2a17a1 <= 5.72
s2 - s23 + 7.219779a2a23a3 <= 5.72
s2 - s67 + 7.234479a2a67a1 <= 5.72
s2 - s164 + 7.216912a2a164a1 <= 5.72
s43 - s17 + 7.219616a43a17a2 <= 5.71
s43 - s67 + 7.227952a43a67a2 <= 5.71
s183 - s17 + 6.907099a183a17a1 <= 5.42
s183 - s17 + 6.907099a183a17a2 <= 5.42
s183 - s67 + 6.916521a183a67a1 <= 5.42
s183 - s67 + 6.916521a183a67a2 <= 5.42
s183 - s164 + 6.898883a183a164a1 <= 5.42
s160 - s23 + 7.016057a160a23a3 <= 5.53
s139 - s17 + 7.095291a139a17a1 <= 5.61
s139 - s17 + 7.095291a139a17a2 <= 5.61
s139 - s67 + 7.104334a139a67a1 <= 5.61
s139 - s67 + 7.104334a139a67a2 <= 5.61
s139 - s164 + 7.086823a139a164a1 <= 5.61
s124 - s17 + 6.693432a124a17a2 <= 5.18
s124 - s23 + 6.687742a124a23a3 <= 5.18
s124 - s67 + 6.700510a124a67a2 <= 5.18
s164 - s17 + 7.214037a164a17a1 <= 6.19
s164 - s67 + 7.211082a164a67a1 <= 6.19

t16 - t17 + 6.485877b16b17b1 <= 5.33
t16 - t23 + 6.492158b16b23b3 <= 5.33
t16 - t67 + 6.511779b16b67b1 <= 5.33
t16 - t164 + 6.509319b16b164b1 <= 5.33
t35 - t23 + 5.865284b35b23b3 <= 4.73
t69 - t17 + 6.448755b69b17b1 <= 5.32
t69 - t23 + 6.454990b69b23b3 <= 5.32
t69 - t67 + 6.475492b69b67b1 <= 5.32
t69 - t164 + 6.472316b69b164b1 <= 5.32
t185 - t17 + 6.718878b185b17b1 <= 5.47
t185 - t17 + 6.718878b185b17b2 <= 5.47
t185 - t67 + 6.735107b185b67b1 <= 5.47
t185 - t67 + 6.735107b185b67b2 <= 5.47
t185 - t164 + 6.739521b185b164b1 <= 5.47
t58 - t17 + 7.101995b58b17b1 <= 5.59
t58 - t17 + 7.101995b58b17b2 <= 5.59
t58 - t67 + 7.111678b58b67b1 <= 5.59
t58 - t67 + 7.111678b58b67b2 <= 5.59
t58 - t164 + 7.093968b58b164b1 <= 5.59
t74 - t17 + 7.017489b74b17b1 <= 5.52
t74 - t17 + 7.017489b74b17b2 <= 5.52
t74 - t67 + 7.027364b74b67b1 <= 5.52
t74 - t67 + 7.027364b74b67b2 <= 5.52
t74 - t164 + 7.009583b74b164b1 <= 5.52
t2 - t17 + 7.225242b2b17b1 <= 5.72
t2 - t23 + 7.219779b2b23b3 <= 5.72
t2 - t67 + 7.234479b2b67b1 <= 5.72
t2 - t164 + 7.216912b2b164b1 <= 5.72
t43 - t17 + 7.219616b43b17b2 <= 5.71
t43 - t67 + 7.227952b43b67b2 <= 5.71
t183 - t17 + 6.907099b183b17b1 <= 5.42
t183 - t17 + 6.907099b183b17b2 <= 5.42
t183 - t67 + 6.916521b183b67b1 <= 5.42
t183 - t67 + 6.916521b183b67b2 <= 5.42
t183 - t164 + 6.898883b183b164b1 <= 5.42
t160 - t23 + 7.016057b160b23b3 <= 5.53
t139 - t17 + 7.095291b139b17b1 <= 5.61
t139 - t17 + 7.095291b139b17b2 <= 5.61
t139 - t67 + 7.104334b139b67b1 <= 5.61
t139 - t67 + 7.104334b139b67b2 <= 5.61
t139 - t164 + 7.086823b139b164b1 <= 5.61
t124 - t17 + 6.693432b124b17b2 <= 5.18
t124 - t23 + 6.687742b124b23b3 <= 5.18
t124 - t67 + 6.700510b124b67b2 <= 5.18
t164 - t17 + 7.214037b164b17b1 <= 6.19
t164 - t67 + 7.211082b164b67b1 <= 6.19



x16x17x1 + x69x17x1 + x185x17x1 + x58x17x1 + x74x17x1 + x2x17x1 + x183x17x1 + x139x17x1 + x164x17x1 + x185x17x2 + x58x17x2 + x74x17x2 + x43x17x2 + x183x17x2 + x139x17x2 + x124x17x2 

- 2w17 <= 0

x16x23x3 + x35x23x3 + x69x23x3 + x2x23x3 + x160x23x3 + x124x23x3 

- 2w23 <= 0

x16x67x1 + x69x67x1 + x185x67x1 + x58x67x1 + x74x67x1 + x2x67x1 + x183x67x1 + x139x67x1 + x164x67x1 + x185x67x2 + x58x67x2 + x74x67x2 + x43x67x2 + x183x67x2 + x139x67x2 + x124x67x2 

- 2w67 <= 0

x16x164x1 + x69x164x1 + x185x164x1 + x58x164x1 + x74x164x1 + x2x164x1 + x183x164x1 + x139x164x1 
- x164x17x1 - x164x67x1 
- 2w164 <= 0

x16x17x1 + x69x17x1 + x185x17x1 + x58x17x1 + x74x17x1 + x2x17x1 + x183x17x1 + x139x17x1 + x164x17x1 + x185x17x2 + x58x17x2 + x74x17x2 + x43x17x2 + x183x17x2 + x139x17x2 + x124x17x2 

- w17 >= 0

x16x23x3 + x35x23x3 + x69x23x3 + x2x23x3 + x160x23x3 + x124x23x3 

- w23 >= 0

x16x67x1 + x69x67x1 + x185x67x1 + x58x67x1 + x74x67x1 + x2x67x1 + x183x67x1 + x139x67x1 + x164x67x1 + x185x67x2 + x58x67x2 + x74x67x2 + x43x67x2 + x183x67x2 + x139x67x2 + x124x67x2 

- w67 >= 0

x16x164x1 + x69x164x1 + x185x164x1 + x58x164x1 + x74x164x1 + x2x164x1 + x183x164x1 + x139x164x1 
- x164x17x1 - x164x67x1 
- w164 >= 0

s16 - t16 + 5.33w16 <= 5.33
s35 - t35 + 4.73w35 <= 4.73
s69 - t69 + 5.32w69 <= 5.32
s185 - t185 + 5.47w185 <= 5.47
s58 - t58 + 5.59w58 <= 5.59
s74 - t74 + 5.52w74 <= 5.52
s2 - t2 + 5.72w2 <= 5.72
s43 - t43 + 5.71w43 <= 5.71
s183 - t183 + 5.42w183 <= 5.42
s160 - t160 + 5.53w160 <= 5.53
s139 - t139 + 5.61w139 <= 5.61
s124 - t124 + 5.18w124 <= 5.18
s17 - t17 + 6.26w17 <= 6.26
s23 - t23 + 6.22w23 <= 6.22
s67 - t67 + 6.28w67 <= 6.28
s164 - t164 + 6.19w164 <= 6.19
s16 - u16 + 5.33w16 <= 5.33
s35 - u35 + 4.73w35 <= 4.73
s69 - u69 + 5.32w69 <= 5.32
s185 - u185 + 5.47w185 <= 5.47
s58 - u58 + 5.59w58 <= 5.59
s74 - u74 + 5.52w74 <= 5.52
s2 - u2 + 5.72w2 <= 5.72
s43 - u43 + 5.71w43 <= 5.71
s183 - u183 + 5.42w183 <= 5.42
s160 - u160 + 5.53w160 <= 5.53
s139 - u139 + 5.61w139 <= 5.61
s124 - u124 + 5.18w124 <= 5.18
s17 - u17 + 6.26w17 <= 6.26
s23 - u23 + 6.22w23 <= 6.22
s67 - u67 + 6.28w67 <= 6.28
s164 - u164 + 6.19w164 <= 6.19
s16 - r16 + 5.33w16 <= 5.33
s35 - r35 + 4.73w35 <= 4.73
s69 - r69 + 5.32w69 <= 5.32
s185 - r185 + 5.47w185 <= 5.47
s58 - r58 + 5.59w58 <= 5.59
s74 - r74 + 5.52w74 <= 5.52
s2 - r2 + 5.72w2 <= 5.72
s43 - r43 + 5.71w43 <= 5.71
s183 - r183 + 5.42w183 <= 5.42
s160 - r160 + 5.53w160 <= 5.53
s139 - r139 + 5.61w139 <= 5.61
s124 - r124 + 5.18w124 <= 5.18
s17 - r17 + 6.26w17 <= 6.26
s23 - r23 + 6.22w23 <= 6.22
s67 - r67 + 6.28w67 <= 6.28
s164 - r164 + 6.19w164 <= 6.19

s16 - t16 - 5.33w16 >= -5.33
s35 - t35 - 4.73w35 >= -4.73
s69 - t69 - 5.32w69 >= -5.32
s185 - t185 - 5.47w185 >= -5.47
s58 - t58 - 5.59w58 >= -5.59
s74 - t74 - 5.52w74 >= -5.52
s2 - t2 - 5.72w2 >= -5.72
s43 - t43 - 5.71w43 >= -5.71
s183 - t183 - 5.42w183 >= -5.42
s160 - t160 - 5.53w160 >= -5.53
s139 - t139 - 5.61w139 >= -5.61
s124 - t124 - 5.18w124 >= -5.18
s17 - t17 - 6.26w17 >= -6.26
s23 - t23 - 6.22w23 >= -6.22
s67 - t67 - 6.28w67 >= -6.28
s164 - t164 - 6.19w164 >= -6.19


s16 - u16 - 5.33w16 >= -5.33
s35 - u35 - 4.73w35 >= -4.73
s69 - u69 - 5.32w69 >= -5.32
s185 - u185 - 5.47w185 >= -5.47
s58 - u58 - 5.59w58 >= -5.59
s74 - u74 - 5.52w74 >= -5.52
s2 - u2 - 5.72w2 >= -5.72
s43 - u43 - 5.71w43 >= -5.71
s183 - u183 - 5.42w183 >= -5.42
s160 - u160 - 5.53w160 >= -5.53
s139 - u139 - 5.61w139 >= -5.61
s124 - u124 - 5.18w124 >= -5.18
s17 - u17 - 20.00w17 >= -20.00
s23 - u23 - 20.00w23 >= -20.00
s67 - u67 - 20.00w67 >= -20.00
s164 - u164 - 20.00w164 >= -20.00


s16 - r16 - 5.33w16 >= -5.33
s35 - r35 - 4.73w35 >= -4.73
s69 - r69 - 5.32w69 >= -5.32
s185 - r185 - 5.47w185 >= -5.47
s58 - r58 - 5.59w58 >= -5.59
s74 - r74 - 5.52w74 >= -5.52
s2 - r2 - 5.72w2 >= -5.72
s43 - r43 - 5.71w43 >= -5.71
s183 - r183 - 5.42w183 >= -5.42
s160 - r160 - 5.53w160 >= -5.53
s139 - r139 - 5.61w139 >= -5.61
s124 - r124 - 5.18w124 >= -5.18
s17 - r17 - 20.00w17 >= -20.00
s23 - r23 - 20.00w23 >= -20.00
s67 - r67 - 20.00w67 >= -20.00
s164 - r164 - 20.00w164 >= -20.00


s17 + 6.26a16a17a1 <= 12.26
s17 + 6.26a69a17a1 <= 12.26
s17 + 6.26a185a17a1 <= 12.26
s17 + 6.26a185a17a2 <= 12.26
s17 + 6.26a58a17a1 <= 12.26
s17 + 6.26a58a17a2 <= 12.26
s17 + 6.26a74a17a1 <= 12.26
s17 + 6.26a74a17a2 <= 12.26
s17 + 6.26a2a17a1 <= 12.26
s17 + 6.26a43a17a2 <= 12.26
s17 + 6.26a183a17a1 <= 12.26
s17 + 6.26a183a17a2 <= 12.26
s17 + 6.26a139a17a1 <= 12.26
s17 + 6.26a139a17a2 <= 12.26
s17 + 6.26a124a17a2 <= 12.26
s17 + 6.26a164a17a1 <= 12.26
s23 + 6.22a16a23a3 <= 12.22
s23 + 6.22a35a23a3 <= 12.22
s23 + 6.22a69a23a3 <= 12.22
s23 + 6.22a2a23a3 <= 12.22
s23 + 6.22a160a23a3 <= 12.22
s23 + 6.22a124a23a3 <= 12.22
s67 + 6.28a16a67a1 <= 12.28
s67 + 6.28a69a67a1 <= 12.28
s67 + 6.28a185a67a1 <= 12.28
s67 + 6.28a185a67a2 <= 12.28
s67 + 6.28a58a67a1 <= 12.28
s67 + 6.28a58a67a2 <= 12.28
s67 + 6.28a74a67a1 <= 12.28
s67 + 6.28a74a67a2 <= 12.28
s67 + 6.28a2a67a1 <= 12.28
s67 + 6.28a43a67a2 <= 12.28
s67 + 6.28a183a67a1 <= 12.28
s67 + 6.28a183a67a2 <= 12.28
s67 + 6.28a139a67a1 <= 12.28
s67 + 6.28a139a67a2 <= 12.28
s67 + 6.28a124a67a2 <= 12.28
s67 + 6.28a164a67a1 <= 12.28
s164 + 6.19a16a164a1 <= 12.19
s164 + 6.19a69a164a1 <= 12.19
s164 + 6.19a185a164a1 <= 12.19
s164 + 6.19a58a164a1 <= 12.19
s164 + 6.19a74a164a1 <= 12.19
s164 + 6.19a2a164a1 <= 12.19
s164 + 6.19a183a164a1 <= 12.19
s164 + 6.19a139a164a1 <= 12.19




a16a17a1 + b16b17b1 <= 1
a69a17a1 + b69b17b1 <= 1
a185a17a1 + b185b17b1 <= 1
a185a17a2 + b185b17b2 <= 1
a58a17a1 + b58b17b1 <= 1
a58a17a2 + b58b17b2 <= 1
a74a17a1 + b74b17b1 <= 1
a74a17a2 + b74b17b2 <= 1
a2a17a1 + b2b17b1 <= 1
a43a17a2 + b43b17b2 <= 1
a183a17a1 + b183b17b1 <= 1
a183a17a2 + b183b17b2 <= 1
a139a17a1 + b139b17b1 <= 1
a139a17a2 + b139b17b2 <= 1
a124a17a2 + b124b17b2 <= 1
a164a17a1 + b164b17b1 <= 1
a16a23a3 + b16b23b3 <= 1
a35a23a3 + b35b23b3 <= 1
a69a23a3 + b69b23b3 <= 1
a2a23a3 + b2b23b3 <= 1
a160a23a3 + b160b23b3 <= 1
a124a23a3 + b124b23b3 <= 1
a16a67a1 + b16b67b1 <= 1
a69a67a1 + b69b67b1 <= 1
a185a67a1 + b185b67b1 <= 1
a185a67a2 + b185b67b2 <= 1
a58a67a1 + b58b67b1 <= 1
a58a67a2 + b58b67b2 <= 1
a74a67a1 + b74b67b1 <= 1
a74a67a2 + b74b67b2 <= 1
a2a67a1 + b2b67b1 <= 1
a43a67a2 + b43b67b2 <= 1
a183a67a1 + b183b67b1 <= 1
a183a67a2 + b183b67b2 <= 1
a139a67a1 + b139b67b1 <= 1
a139a67a2 + b139b67b2 <= 1
a124a67a2 + b124b67b2 <= 1
a164a67a1 + b164b67b1 <= 1
a16a164a1 + b16b164b1 <= 1
a69a164a1 + b69b164b1 <= 1
a185a164a1 + b185b164b1 <= 1
a58a164a1 + b58b164b1 <= 1
a74a164a1 + b74b164b1 <= 1
a2a164a1 + b2b164b1 <= 1
a183a164a1 + b183b164b1 <= 1
a139a164a1 + b139b164b1 <= 1


a16a17a1 + c16c17c1 <= 1
a69a17a1 + c69c17c1 <= 1
a185a17a1 + c185c17c1 <= 1
a185a17a2 + c185c17c2 <= 1
a58a17a1 + c58c17c1 <= 1
a58a17a2 + c58c17c2 <= 1
a74a17a1 + c74c17c1 <= 1
a74a17a2 + c74c17c2 <= 1
a2a17a1 + c2c17c1 <= 1
a43a17a2 + c43c17c2 <= 1
a183a17a1 + c183c17c1 <= 1
a183a17a2 + c183c17c2 <= 1
a139a17a1 + c139c17c1 <= 1
a139a17a2 + c139c17c2 <= 1
a124a17a2 + c124c17c2 <= 1
a164a17a1 + c164c17c1 <= 1
a16a23a3 + c16c23c3 <= 1
a35a23a3 + c35c23c3 <= 1
a69a23a3 + c69c23c3 <= 1
a2a23a3 + c2c23c3 <= 1
a160a23a3 + c160c23c3 <= 1
a124a23a3 + c124c23c3 <= 1
a16a67a1 + c16c67c1 <= 1
a69a67a1 + c69c67c1 <= 1
a185a67a1 + c185c67c1 <= 1
a185a67a2 + c185c67c2 <= 1
a58a67a1 + c58c67c1 <= 1
a58a67a2 + c58c67c2 <= 1
a74a67a1 + c74c67c1 <= 1
a74a67a2 + c74c67c2 <= 1
a2a67a1 + c2c67c1 <= 1
a43a67a2 + c43c67c2 <= 1
a183a67a1 + c183c67c1 <= 1
a183a67a2 + c183c67c2 <= 1
a139a67a1 + c139c67c1 <= 1
a139a67a2 + c139c67c2 <= 1
a124a67a2 + c124c67c2 <= 1
a164a67a1 + c164c67c1 <= 1
a16a164a1 + c16c164c1 <= 1
a69a164a1 + c69c164c1 <= 1
a185a164a1 + c185c164c1 <= 1
a58a164a1 + c58c164c1 <= 1
a74a164a1 + c74c164c1 <= 1
a2a164a1 + c2c164c1 <= 1
a183a164a1 + c183c164c1 <= 1
a139a164a1 + c139c164c1 <= 1


a16a17a1 + d16d17d1 <= 1
a69a17a1 + d69d17d1 <= 1
a185a17a1 + d185d17d1 <= 1
a185a17a2 + d185d17d2 <= 1
a58a17a1 + d58d17d1 <= 1
a58a17a2 + d58d17d2 <= 1
a74a17a1 + d74d17d1 <= 1
a74a17a2 + d74d17d2 <= 1
a2a17a1 + d2d17d1 <= 1
a43a17a2 + d43d17d2 <= 1
a183a17a1 + d183d17d1 <= 1
a183a17a2 + d183d17d2 <= 1
a139a17a1 + d139d17d1 <= 1
a139a17a2 + d139d17d2 <= 1
a124a17a2 + d124d17d2 <= 1
a164a17a1 + d164d17d1 <= 1
a16a23a3 + d16d23d3 <= 1
a35a23a3 + d35d23d3 <= 1
a69a23a3 + d69d23d3 <= 1
a2a23a3 + d2d23d3 <= 1
a160a23a3 + d160d23d3 <= 1
a124a23a3 + d124d23d3 <= 1
a16a67a1 + d16d67d1 <= 1
a69a67a1 + d69d67d1 <= 1
a185a67a1 + d185d67d1 <= 1
a185a67a2 + d185d67d2 <= 1
a58a67a1 + d58d67d1 <= 1
a58a67a2 + d58d67d2 <= 1
a74a67a1 + d74d67d1 <= 1
a74a67a2 + d74d67d2 <= 1
a2a67a1 + d2d67d1 <= 1
a43a67a2 + d43d67d2 <= 1
a183a67a1 + d183d67d1 <= 1
a183a67a2 + d183d67d2 <= 1
a139a67a1 + d139d67d1 <= 1
a139a67a2 + d139d67d2 <= 1
a124a67a2 + d124d67d2 <= 1
a164a67a1 + d164d67d1 <= 1
a16a164a1 + d16d164d1 <= 1
a69a164a1 + d69d164d1 <= 1
a185a164a1 + d185d164d1 <= 1
a58a164a1 + d58d164d1 <= 1
a74a164a1 + d74d164d1 <= 1
a2a164a1 + d2d164d1 <= 1
a183a164a1 + d183d164d1 <= 1
a139a164a1 + d139d164d1 <= 1

x16x17x1 - 1a16a17a1 <= 0
x16x23x3 - 2a16a23a3 <= 0
x16x67x1 - 1a16a67a1 <= 0
x16x164x1 - 2a16a164a1 <= 0
x35x23x3 - 2a35a23a3 <= 0
x69x17x1 - 1a69a17a1 <= 0
x69x23x3 - 2a69a23a3 <= 0
x69x67x1 - 1a69a67a1 <= 0
x69x164x1 - 2a69a164a1 <= 0
x185x17x1 - 1a185a17a1 <= 0
x185x17x2 - 1a185a17a2 <= 0
x185x67x1 - 1a185a67a1 <= 0
x185x67x2 - 1a185a67a2 <= 0
x185x164x1 - 2a185a164a1 <= 0
x58x17x1 - 1a58a17a1 <= 0
x58x17x2 - 1a58a17a2 <= 0
x58x67x1 - 1a58a67a1 <= 0
x58x67x2 - 1a58a67a2 <= 0
x58x164x1 - 2a58a164a1 <= 0
x74x17x1 - 1a74a17a1 <= 0
x74x17x2 - 1a74a17a2 <= 0
x74x67x1 - 1a74a67a1 <= 0
x74x67x2 - 1a74a67a2 <= 0
x74x164x1 - 2a74a164a1 <= 0
x2x17x1 - 1a2a17a1 <= 0
x2x23x3 - 2a2a23a3 <= 0
x2x67x1 - 1a2a67a1 <= 0
x2x164x1 - 2a2a164a1 <= 0
x43x17x2 - 1a43a17a2 <= 0
x43x67x2 - 1a43a67a2 <= 0
x183x17x1 - 1a183a17a1 <= 0
x183x17x2 - 1a183a17a2 <= 0
x183x67x1 - 1a183a67a1 <= 0
x183x67x2 - 1a183a67a2 <= 0
x183x164x1 - 2a183a164a1 <= 0
x160x23x3 - 2a160a23a3 <= 0
x139x17x1 - 1a139a17a1 <= 0
x139x17x2 - 1a139a17a2 <= 0
x139x67x1 - 1a139a67a1 <= 0
x139x67x2 - 1a139a67a2 <= 0
x139x164x1 - 2a139a164a1 <= 0
x124x17x2 - 1a124a17a2 <= 0
x124x23x3 - 2a124a23a3 <= 0
x124x67x2 - 1a124a67a2 <= 0
x164x17x1 - 1a164a17a1 <= 0
x164x67x1 - 1a164a67a1 <= 0
y16y17y1 - 1b16b17b1 <= 0
y16y23y3 - 2b16b23b3 <= 0
y16y67y1 - 1b16b67b1 <= 0
y16y164y1 - 2b16b164b1 <= 0
y35y23y3 - 2b35b23b3 <= 0
y69y17y1 - 1b69b17b1 <= 0
y69y23y3 - 2b69b23b3 <= 0
y69y67y1 - 1b69b67b1 <= 0
y69y164y1 - 2b69b164b1 <= 0
y185y17y1 - 1b185b17b1 <= 0
y185y17y2 - 1b185b17b2 <= 0
y185y67y1 - 1b185b67b1 <= 0
y185y67y2 - 1b185b67b2 <= 0
y185y164y1 - 2b185b164b1 <= 0
y58y17y1 - 1b58b17b1 <= 0
y58y17y2 - 1b58b17b2 <= 0
y58y67y1 - 1b58b67b1 <= 0
y58y67y2 - 1b58b67b2 <= 0
y58y164y1 - 2b58b164b1 <= 0
y74y17y1 - 1b74b17b1 <= 0
y74y17y2 - 1b74b17b2 <= 0
y74y67y1 - 1b74b67b1 <= 0
y74y67y2 - 1b74b67b2 <= 0
y74y164y1 - 2b74b164b1 <= 0
y2y17y1 - 1b2b17b1 <= 0
y2y23y3 - 2b2b23b3 <= 0
y2y67y1 - 1b2b67b1 <= 0
y2y164y1 - 2b2b164b1 <= 0
y43y17y2 - 1b43b17b2 <= 0
y43y67y2 - 1b43b67b2 <= 0
y183y17y1 - 1b183b17b1 <= 0
y183y17y2 - 1b183b17b2 <= 0
y183y67y1 - 1b183b67b1 <= 0
y183y67y2 - 1b183b67b2 <= 0
y183y164y1 - 2b183b164b1 <= 0
y160y23y3 - 2b160b23b3 <= 0
y139y17y1 - 1b139b17b1 <= 0
y139y17y2 - 1b139b17b2 <= 0
y139y67y1 - 1b139b67b1 <= 0
y139y67y2 - 1b139b67b2 <= 0
y139y164y1 - 2b139b164b1 <= 0
y124y17y2 - 1b124b17b2 <= 0
y124y23y3 - 2b124b23b3 <= 0
y124y67y2 - 1b124b67b2 <= 0
y164y17y1 - 1b164b17b1 <= 0
y164y67y1 - 1b164b67b1 <= 0

Bounds
s16 = 5.329814
t16 = 5.329814
u16 = 5.329814
r16 = 5.329814
s35 = 4.733966
t35 = 4.733966
u35 = 4.733966
r35 = 4.733966
s69 = 5.320000
t69 = 5.320000
u69 = 5.320000
r69 = 5.320000
s185 = 5.465457
t185 = 5.465457
u185 = 5.465457
r185 = 5.465457
s58 = 5.585856
t58 = 5.585856
u58 = 5.585856
r58 = 5.585856
s74 = 5.516069
t74 = 5.516069
u74 = 5.516069
r74 = 5.516069
s2 = 5.722229
t2 = 5.722229
u2 = 5.722229
r2 = 5.722229
s43 = 5.709278
t43 = 5.709278
u43 = 5.709278
r43 = 5.709278
s183 = 5.418837
t183 = 5.418837
u183 = 5.418837
r183 = 5.418837
s160 = 5.526068
t160 = 5.526068
u160 = 5.526068
r160 = 5.526068
s139 = 5.610821
t139 = 5.610821
u139 = 5.610821
r139 = 5.610821
s124 = 5.178931
t124 = 5.178931
u124 = 5.178931
r124 = 5.178931
5.26 <= s17 <= 6.26
5.22 <= s23 <= 6.22
5.28 <= s67 <= 6.28
5.19 <= s164 <= 6.19

5.26 <= t17 <= 6.26
5.22 <= t23 <= 6.22
5.28 <= t67 <= 6.28
5.19 <= t164 <= 6.19

0.00 <= u17 <= 20.00
0.00 <= u23 <= 20.00
0.00 <= u67 <= 20.00
0.00 <= u164 <= 20.00

0.00 <= r17 <= 20.00
0.00 <= r23 <= 20.00
0.00 <= r67 <= 20.00
0.00 <= r164 <= 20.00

General
x16x17x1 x16x23x3 x16x67x1 x16x164x1 
x35x23x3 
x69x17x1 x69x23x3 x69x67x1 x69x164x1 
x185x17x1 x185x17x2 x185x67x1 x185x67x2 x185x164x1 
x58x17x1 x58x17x2 x58x67x1 x58x67x2 x58x164x1 
x74x17x1 x74x17x2 x74x67x1 x74x67x2 x74x164x1 
x2x17x1 x2x23x3 x2x67x1 x2x164x1 
x43x17x2 x43x67x2 
x183x17x1 x183x17x2 x183x67x1 x183x67x2 x183x164x1 
x160x23x3 
x139x17x1 x139x17x2 x139x67x1 x139x67x2 x139x164x1 
x124x17x2 x124x23x3 x124x67x2 
x164x17x1 x164x67x1 

y16y17y1 y16y23y3 y16y67y1 y16y164y1 
y35y23y3 
y69y17y1 y69y23y3 y69y67y1 y69y164y1 
y185y17y1 y185y17y2 y185y67y1 y185y67y2 y185y164y1 
y58y17y1 y58y17y2 y58y67y1 y58y67y2 y58y164y1 
y74y17y1 y74y17y2 y74y67y1 y74y67y2 y74y164y1 
y2y17y1 y2y23y3 y2y67y1 y2y164y1 
y43y17y2 y43y67y2 
y183y17y1 y183y17y2 y183y67y1 y183y67y2 y183y164y1 
y160y23y3 
y139y17y1 y139y17y2 y139y67y1 y139y67y2 y139y164y1 
y124y17y2 y124y23y3 y124y67y2 
y164y17y1 y164y67y1 



Binaries
X17 X23 X67 X164 
Y17 Y23 Y67 Y164 



w17 w23 w67 w164 

a16a17a1 a16a23a3 a16a67a1 a16a164a1 
a35a23a3 
a69a17a1 a69a23a3 a69a67a1 a69a164a1 
a185a17a1 a185a17a2 a185a67a1 a185a67a2 a185a164a1 
a58a17a1 a58a17a2 a58a67a1 a58a67a2 a58a164a1 
a74a17a1 a74a17a2 a74a67a1 a74a67a2 a74a164a1 
a2a17a1 a2a23a3 a2a67a1 a2a164a1 
a43a17a2 a43a67a2 
a183a17a1 a183a17a2 a183a67a1 a183a67a2 a183a164a1 
a160a23a3 
a139a17a1 a139a17a2 a139a67a1 a139a67a2 a139a164a1 
a124a17a2 a124a23a3 a124a67a2 
a164a17a1 a164a67a1 

b16b17b1 b16b23b3 b16b67b1 b16b164b1 
b35b23b3 
b69b17b1 b69b23b3 b69b67b1 b69b164b1 
b185b17b1 b185b17b2 b185b67b1 b185b67b2 b185b164b1 
b58b17b1 b58b17b2 b58b67b1 b58b67b2 b58b164b1 
b74b17b1 b74b17b2 b74b67b1 b74b67b2 b74b164b1 
b2b17b1 b2b23b3 b2b67b1 b2b164b1 
b43b17b2 b43b67b2 
b183b17b1 b183b17b2 b183b67b1 b183b67b2 b183b164b1 
b160b23b3 
b139b17b1 b139b17b2 b139b67b1 b139b67b2 b139b164b1 
b124b17b2 b124b23b3 b124b67b2 
b164b17b1 b164b67b1 



End